5
29
91
40	23
1	2	18	4	4	2	
2	4	7	7	23	4	7	4	7	3	
3	3	8	12	10	6	15	2	
4	2	11	3	8	3	
5	1	7	5	
6	1	7	7	
7	3	8	9	6	5	10	3	
8	3	4	6	12	4	10	3	
9	2	11	4	18	3	
10	3	15	4	5	4	17	3	
11	4	7	8	6	6	12	4	6	3	
12	3	6	5	16	3	11	3	
13	5	5	12	7	10	11	4	7	4	9	3	
14	1	9	3	
15	3	5	5	7	4	17	3	
16	1	11	2	
17	5	16	3	11	3	8	3	7	3	18	2	
18	3	6	6	8	4	7	4	
19	2	5	9	9	5	
20	5	5	7	5	5	10	4	22	3	20	3	
21	4	5	11	6	3	5	3	16	2	
22	4	7	10	6	7	14	4	5	4	
23	5	6	10	4	5	10	4	12	3	19	2	
24	5	5	6	14	4	7	4	9	3	8	2	
25	3	12	5	4	5	14	4	
26	1	7	2	
27	5	4	11	7	5	11	3	10	3	9	2	
28	4	4	7	10	5	15	4	6	2	
29	4	22	3	12	3	7	3	11	2	
